48
1 0 14
2 0 14
2 1 10
3 0 2
3 1 18
3 2 1
4 0 17
4 1 5
4 2 7
4 3 12
5 0 12
5 1 13
5 2 15
5 3 24
5 4 10
6 0 13
6 1 13
6 2 5
6 3 7
6 4 25
6 5 14
7 0 25
7 1 10
7 2 5
7 3 19
7 4 23
7 5 4
7 6 3
8 0 15
8 1 23
8 2 8
8 3 20
8 4 2
8 5 3
8 6 25
8 7 25
9 0 14
9 1 22
9 2 3
9 3 26
9 4 11
9 5 19
9 6 15
9 7 13
9 8 25
10 0 13
10 1 26
10 2 25
10 3 21
10 4 18
10 5 25
10 6 8
10 7 4
10 8 2
10 9 7
11 0 20
11 1 13
11 2 26
11 3 16
11 4 9
11 5 16
11 6 25
11 7 2
11 8 6
11 9 10
11 10 12
12 0 25
12 1 21
12 2 4
12 3 2
12 4 1
12 5 9
12 6 22
12 7 20
12 8 23
12 9 5
12 10 19
12 11 10
13 0 7
13 1 16
13 2 24
13 3 1
13 4 3
13 5 10
13 6 8
13 7 8
13 8 22
13 9 12
13 10 7
13 11 3
13 12 2
14 0 1
14 1 20
14 2 27
14 3 10
14 4 9
14 5 2
14 6 4
14 7 7
14 8 20
14 9 3
14 10 11
14 11 9
14 12 17
14 13 25
15 0 16
15 1 7
15 2 26
15 3 26
15 4 17
15 5 25
15 6 23
15 7 17
15 8 4
15 9 10
15 10 8
15 11 3
15 12 22
15 13 6
15 14 2
16 0 24
16 1 14
16 2 15
16 3 13
16 4 5
16 5 27
16 6 20
16 7 25
16 8 4
16 9 15
16 10 10
16 11 7
16 12 21
16 13 10
16 14 2
16 15 26
17 0 27
17 1 24
17 2 1
17 3 15
17 4 16
17 5 19
17 6 4
17 7 2
17 8 1
17 9 1
17 10 8
17 11 8
17 12 19
17 13 6
17 14 11
17 15 25
17 16 3
18 0 8
18 1 24
18 2 8
18 3 4
18 4 11
18 5 25
18 6 1
18 7 24
18 8 16
18 9 12
18 10 27
18 11 19
18 12 7
18 13 27
18 14 24
18 15 8
18 16 11
18 17 26
19 0 20
19 1 21
19 2 26
19 3 27
19 4 21
19 5 22
19 6 21
19 7 26
19 8 24
19 9 15
19 10 10
19 11 16
19 12 22
19 13 19
19 14 6
19 15 4
19 16 27
19 17 6
19 18 5
20 0 3
20 1 13
20 2 9
20 3 16
20 4 17
20 5 15
20 6 19
20 7 4
20 8 16
20 9 7
20 10 7
20 11 2
20 12 18
20 13 9
20 14 1
20 15 15
20 16 20
20 17 3
20 18 11
20 19 4
21 0 27
21 1 6
21 2 14
21 3 1
21 4 10
21 5 18
21 6 27
21 7 14
21 8 24
21 9 26
21 10 16
21 11 12
21 12 9
21 13 20
21 14 16
21 15 27
21 16 13
21 17 6
21 18 10
21 19 9
21 20 12
22 0 3
22 1 3
22 2 17
22 3 26
22 4 18
22 5 20
22 6 8
22 7 25
22 8 20
22 9 16
22 10 13
22 11 2
22 12 5
22 13 10
22 14 22
22 15 4
22 16 11
22 17 27
22 18 17
22 19 11
22 20 2
22 21 8
23 0 7
23 1 17
23 2 18
23 3 1
23 4 8
23 5 2
23 6 24
23 7 4
23 8 8
23 9 13
23 10 6
23 11 21
23 12 14
23 13 1
23 14 19
23 15 5
23 16 5
23 17 24
23 18 19
23 19 12
23 20 12
23 21 2
23 22 1
24 0 25
24 1 22
24 2 7
24 3 19
24 4 19
24 5 3
24 6 3
24 7 17
24 8 14
24 9 13
24 10 11
24 11 9
24 12 15
24 13 14
24 14 9
24 15 17
24 16 21
24 17 14
24 18 9
24 19 2
24 20 11
24 21 13
24 22 21
24 23 12
25 0 1
25 1 15
25 2 25
25 3 2
25 4 21
25 5 22
25 6 9
25 7 6
25 8 10
25 9 12
25 10 11
25 11 21
25 12 13
25 13 6
25 14 19
25 15 1
25 16 25
25 17 11
25 18 19
25 19 21
25 20 26
25 21 8
25 22 12
25 23 19
25 24 15
26 0 3
26 1 16
26 2 15
26 3 14
26 4 14
26 5 27
26 6 3
26 7 15
26 8 12
26 9 17
26 10 23
26 11 12
26 12 7
26 13 1
26 14 4
26 15 16
26 16 9
26 17 22
26 18 3
26 19 3
26 20 23
26 21 13
26 22 16
26 23 23
26 24 18
26 25 10
27 0 24
27 1 6
27 2 15
27 3 24
27 4 4
27 5 12
27 6 20
27 7 26
27 8 20
27 9 10
27 10 15
27 11 23
27 12 16
27 13 21
27 14 21
27 15 27
27 16 16
27 17 14
27 18 2
27 19 13
27 20 27
27 21 10
27 22 24
27 23 17
27 24 10
27 25 10
27 26 6
28 0 18
28 1 8
28 2 21
28 3 27
28 4 15
28 5 25
28 6 16
28 7 6
28 8 26
28 9 19
28 10 17
28 11 8
28 12 21
28 13 20
28 14 6
28 15 10
28 16 27
28 17 11
28 18 26
28 19 22
28 20 1
28 21 11
28 22 18
28 23 1
28 24 5
28 25 12
28 26 19
28 27 6
29 0 2
29 1 27
29 2 2
29 3 19
29 4 18
29 5 16
29 6 8
29 7 27
29 8 20
29 9 17
29 10 5
29 11 2
29 12 26
29 13 11
29 14 15
29 15 23
29 16 1
29 17 10
29 18 15
29 19 4
29 20 22
29 21 11
29 22 22
29 23 3
29 24 19
29 25 12
29 26 10
29 27 3
29 28 13
30 0 14
30 1 4
30 2 24
30 3 22
30 4 5
30 5 12
30 6 16
30 7 9
30 8 7
30 9 17
30 10 25
30 11 8
30 12 21
30 13 26
30 14 15
30 15 9
30 16 18
30 17 9
30 18 5
30 19 24
30 20 1
30 21 12
30 22 13
30 23 25
30 24 18
30 25 18
30 26 9
30 27 11
30 28 2
30 29 7
31 0 10
31 1 12
31 2 6
31 3 25
31 4 19
31 5 7
31 6 13
31 7 12
31 8 25
31 9 7
31 10 1
31 11 25
31 12 12
31 13 13
31 14 26
31 15 7
31 16 11
31 17 7
31 18 20
31 19 26
31 20 21
31 21 22
31 22 13
31 23 21
31 24 26
31 25 7
31 26 4
31 27 25
31 28 23
31 29 5
31 30 6
32 0 8
32 1 16
32 2 13
32 3 17
32 4 11
32 5 14
32 6 21
32 7 18
32 8 26
32 9 5
32 10 27
32 11 13
32 12 11
32 13 11
32 14 26
32 15 16
32 16 22
32 17 19
32 18 18
32 19 18
32 20 20
32 21 14
32 22 23
32 23 13
32 24 15
32 25 6
32 26 11
32 27 12
32 28 6
32 29 20
32 30 2
32 31 13
33 0 7
33 1 4
33 2 11
33 3 7
33 4 8
33 5 24
33 6 26
33 7 17
33 8 5
33 9 3
33 10 14
33 11 22
33 12 17
33 13 18
33 14 24
33 15 10
33 16 10
33 17 9
33 18 15
33 19 4
33 20 9
33 21 11
33 22 27
33 23 22
33 24 3
33 25 11
33 26 24
33 27 20
33 28 19
33 29 10
33 30 8
33 31 22
33 32 20
34 0 21
34 1 22
34 2 6
34 3 23
34 4 27
34 5 1
34 6 24
34 7 20
34 8 16
34 9 8
34 10 16
34 11 27
34 12 25
34 13 10
34 14 10
34 15 15
34 16 27
34 17 12
34 18 27
34 19 7
34 20 13
34 21 12
34 22 23
34 23 15
34 24 3
34 25 14
34 26 12
34 27 12
34 28 8
34 29 15
34 30 5
34 31 17
34 32 8
34 33 10
35 0 21
35 1 10
35 2 12
35 3 26
35 4 17
35 5 6
35 6 6
35 7 18
35 8 15
35 9 20
35 10 9
35 11 17
35 12 14
35 13 16
35 14 26
35 15 12
35 16 10
35 17 27
35 18 14
35 19 23
35 20 13
35 21 25
35 22 7
35 23 13
35 24 2
35 25 16
35 26 2
35 27 12
35 28 16
35 29 11
35 30 15
35 31 27
35 32 4
35 33 6
35 34 23
36 0 23
36 1 8
36 2 4
36 3 7
36 4 3
36 5 8
36 6 13
36 7 12
36 8 9
36 9 18
36 10 6
36 11 20
36 12 18
36 13 3
36 14 11
36 15 22
36 16 17
36 17 20
36 18 12
36 19 17
36 20 24
36 21 23
36 22 18
36 23 26
36 24 13
36 25 16
36 26 8
36 27 27
36 28 9
36 29 11
36 30 7
36 31 24
36 32 5
36 33 16
36 34 15
36 35 9
37 0 16
37 1 7
37 2 7
37 3 24
37 4 22
37 5 5
37 6 6
37 7 26
37 8 13
37 9 24
37 10 26
37 11 27
37 12 4
37 13 20
37 14 24
37 15 26
37 16 23
37 17 21
37 18 23
37 19 17
37 20 18
37 21 7
37 22 15
37 23 16
37 24 21
37 25 4
37 26 2
37 27 23
37 28 6
37 29 27
37 30 1
37 31 9
37 32 20
37 33 10
37 34 27
37 35 6
37 36 12
38 0 20
38 1 14
38 2 3
38 3 21
38 4 19
38 5 1
38 6 20
38 7 5
38 8 11
38 9 22
38 10 10
38 11 22
38 12 3
38 13 10
38 14 5
38 15 16
38 16 26
38 17 25
38 18 15
38 19 27
38 20 8
38 21 10
38 22 13
38 23 27
38 24 20
38 25 6
38 26 27
38 27 4
38 28 20
38 29 20
38 30 18
38 31 23
38 32 7
38 33 17
38 34 9
38 35 6
38 36 22
38 37 2
39 0 17
39 1 2
39 2 6
39 3 24
39 4 13
39 5 23
39 6 10
39 7 17
39 8 19
39 9 20
39 10 27
39 11 21
39 12 5
39 13 1
39 14 26
39 15 3
39 16 24
39 17 26
39 18 14
39 19 23
39 20 24
39 21 19
39 22 17
39 23 23
39 24 25
39 25 6
39 26 13
39 27 21
39 28 5
39 29 16
39 30 15
39 31 3
39 32 25
39 33 1
39 34 27
39 35 4
39 36 25
39 37 27
39 38 26
40 0 15
40 1 5
40 2 21
40 3 14
40 4 8
40 5 14
40 6 19
40 7 1
40 8 21
40 9 5
40 10 25
40 11 7
40 12 6
40 13 27
40 14 23
40 15 4
40 16 10
40 17 24
40 18 15
40 19 24
40 20 10
40 21 14
40 22 2
40 23 1
40 24 22
40 25 7
40 26 12
40 27 20
40 28 6
40 29 9
40 30 13
40 31 4
40 32 23
40 33 4
40 34 24
40 35 7
40 36 1
40 37 7
40 38 23
40 39 7
41 0 23
41 1 7
41 2 15
41 3 25
41 4 13
41 5 19
41 6 24
41 7 1
41 8 8
41 9 13
41 10 1
41 11 11
41 12 2
41 13 2
41 14 12
41 15 23
41 16 25
41 17 15
41 18 2
41 19 10
41 20 18
41 21 26
41 22 24
41 23 15
41 24 12
41 25 17
41 26 1
41 27 10
41 28 26
41 29 13
41 30 15
41 31 18
41 32 23
41 33 18
41 34 18
41 35 9
41 36 20
41 37 10
41 38 5
41 39 11
41 40 23
42 0 15
42 1 4
42 2 6
42 3 6
42 4 11
42 5 13
42 6 2
42 7 11
42 8 18
42 9 12
42 10 12
42 11 9
42 12 16
42 13 19
42 14 7
42 15 11
42 16 23
42 17 3
42 18 27
42 19 22
42 20 13
42 21 14
42 22 19
42 23 23
42 24 10
42 25 9
42 26 22
42 27 12
42 28 9
42 29 13
42 30 17
42 31 22
42 32 9
42 33 3
42 34 17
42 35 1
42 36 18
42 37 2
42 38 22
42 39 24
42 40 8
42 41 3
43 0 3
43 1 11
43 2 5
43 3 10
43 4 9
43 5 18
43 6 25
43 7 13
43 8 12
43 9 11
43 10 10
43 11 8
43 12 18
43 13 15
43 14 11
43 15 9
43 16 4
43 17 21
43 18 14
43 19 8
43 20 25
43 21 17
43 22 16
43 23 3
43 24 19
43 25 27
43 26 8
43 27 19
43 28 5
43 29 21
43 30 17
43 31 23
43 32 19
43 33 27
43 34 22
43 35 18
43 36 19
43 37 25
43 38 22
43 39 26
43 40 14
43 41 25
43 42 3
44 0 14
44 1 23
44 2 18
44 3 24
44 4 8
44 5 8
44 6 21
44 7 7
44 8 27
44 9 12
44 10 24
44 11 4
44 12 17
44 13 1
44 14 1
44 15 24
44 16 16
44 17 25
44 18 18
44 19 7
44 20 1
44 21 17
44 22 4
44 23 10
44 24 25
44 25 27
44 26 4
44 27 27
44 28 10
44 29 17
44 30 2
44 31 4
44 32 9
44 33 26
44 34 7
44 35 16
44 36 4
44 37 1
44 38 16
44 39 3
44 40 7
44 41 20
44 42 16
44 43 21
45 0 13
45 1 20
45 2 22
45 3 25
45 4 1
45 5 9
45 6 15
45 7 24
45 8 24
45 9 4
45 10 8
45 11 6
45 12 11
45 13 8
45 14 24
45 15 7
45 16 17
45 17 13
45 18 15
45 19 5
45 20 13
45 21 7
45 22 22
45 23 21
45 24 6
45 25 26
45 26 26
45 27 17
45 28 6
45 29 19
45 30 6
45 31 27
45 32 15
45 33 27
45 34 1
45 35 14
45 36 17
45 37 25
45 38 4
45 39 3
45 40 20
45 41 2
45 42 13
45 43 7
45 44 16
46 0 20
46 1 7
46 2 12
46 3 3
46 4 20
46 5 6
46 6 1
46 7 21
46 8 27
46 9 21
46 10 1
46 11 18
46 12 4
46 13 8
46 14 3
46 15 24
46 16 10
46 17 8
46 18 21
46 19 15
46 20 27
46 21 21
46 22 10
46 23 18
46 24 6
46 25 4
46 26 6
46 27 9
46 28 19
46 29 16
46 30 13
46 31 7
46 32 17
46 33 18
46 34 10
46 35 25
46 36 26
46 37 11
46 38 9
46 39 7
46 40 12
46 41 19
46 42 3
46 43 17
46 44 27
46 45 3
47 0 12
47 1 8
47 2 17
47 3 13
47 4 10
47 5 21
47 6 17
47 7 19
47 8 9
47 9 8
47 10 17
47 11 14
47 12 25
47 13 2
47 14 11
47 15 21
47 16 21
47 17 26
47 18 26
47 19 17
47 20 12
47 21 5
47 22 9
47 23 3
47 24 10
47 25 13
47 26 15
47 27 13
47 28 13
47 29 18
47 30 23
47 31 3
47 32 21
47 33 23
47 34 1
47 35 24
47 36 1
47 37 27
47 38 8
47 39 8
47 40 7
47 41 21
47 42 5
47 43 19
47 44 9
47 45 11
47 46 15
